formal/bullet/model/design_smt2.smt2
; SMT-LIBv2 description generated by Yosys 0.8+143 (git sha1 c82aa49, clang 3.8.0-2ubuntu4 -fPIC -Os)
; yosys-smt2-module $paramod/timer_1us/PERIOD=90000
(declare-sort |$paramod/timer_1us/PERIOD=90000_s| 0)
(declare-fun |$paramod/timer_1us/PERIOD=90000_is| (|$paramod/timer_1us/PERIOD=90000_s|) Bool)
; yosys-smt2-output o_q 1
; yosys-smt2-register o_q 1
; yosys-smt2-wire o_q 1
(declare-fun |$paramod/timer_1us/PERIOD=90000#0| (|$paramod/timer_1us/PERIOD=90000_s|) (_ BitVec 1)) ; \o_q
(define-fun |$paramod/timer_1us/PERIOD=90000_n o_q| ((state |$paramod/timer_1us/PERIOD=90000_s|)) Bool (= ((_ extract 0 0) (|$paramod/timer_1us/PERIOD=90000#0| state)) #b1))
; yosys-smt2-input i_reset 1
; yosys-smt2-wire i_reset 1
(declare-fun |$paramod/timer_1us/PERIOD=90000#1| (|$paramod/timer_1us/PERIOD=90000_s|) Bool) ; \i_reset
(define-fun |$paramod/timer_1us/PERIOD=90000_n i_reset| ((state |$paramod/timer_1us/PERIOD=90000_s|)) Bool (|$paramod/timer_1us/PERIOD=90000#1| state))
; yosys-smt2-input i_clk_25MHz 1
; yosys-smt2-wire i_clk_25MHz 1
; yosys-smt2-clock i_clk_25MHz posedge
(declare-fun |$paramod/timer_1us/PERIOD=90000#2| (|$paramod/timer_1us/PERIOD=90000_s|) Bool) ; \i_clk_25MHz
(define-fun |$paramod/timer_1us/PERIOD=90000_n i_clk_25MHz| ((state |$paramod/timer_1us/PERIOD=90000_s|)) Bool (|$paramod/timer_1us/PERIOD=90000#2| state))
; yosys-smt2-register count 32
; yosys-smt2-wire count 32
(declare-fun |$paramod/timer_1us/PERIOD=90000#3| (|$paramod/timer_1us/PERIOD=90000_s|) (_ BitVec 32)) ; \count
(define-fun |$paramod/timer_1us/PERIOD=90000_n count| ((state |$paramod/timer_1us/PERIOD=90000_s|)) (_ BitVec 32) (|$paramod/timer_1us/PERIOD=90000#3| state))
(define-fun |$paramod/timer_1us/PERIOD=90000#4| ((state |$paramod/timer_1us/PERIOD=90000_s|)) (_ BitVec 32) (bvadd (|$paramod/timer_1us/PERIOD=90000#3| state) #b00000000000000000000000000000001)) ; $add$timer_1us.v:31$489_Y
(define-fun |$paramod/timer_1us/PERIOD=90000#5| ((state |$paramod/timer_1us/PERIOD=90000_s|)) Bool (= (|$paramod/timer_1us/PERIOD=90000#3| state) #b00000000001100010111000000111111)) ; $eq$timer_1us.v:26$488_Y
(define-fun |$paramod/timer_1us/PERIOD=90000#6| ((state |$paramod/timer_1us/PERIOD=90000_s|)) (_ BitVec 32) (ite (|$paramod/timer_1us/PERIOD=90000#5| state) #b00000000000000000000000000000000 (|$paramod/timer_1us/PERIOD=90000#4| state))) ; $procmux$500_Y
(define-fun |$paramod/timer_1us/PERIOD=90000#7| ((state |$paramod/timer_1us/PERIOD=90000_s|)) (_ BitVec 32) (ite (|$paramod/timer_1us/PERIOD=90000#1| state) (|$paramod/timer_1us/PERIOD=90000#6| state) #b00000000000000000000000000000000)) ; $0\count[31:0]
(define-fun |$paramod/timer_1us/PERIOD=90000#8| ((state |$paramod/timer_1us/PERIOD=90000_s|)) (_ BitVec 1) (ite (|$paramod/timer_1us/PERIOD=90000#5| state) #b1 #b0)) ; $procmux$506_Y
(define-fun |$paramod/timer_1us/PERIOD=90000#9| ((state |$paramod/timer_1us/PERIOD=90000_s|)) (_ BitVec 1) (ite (|$paramod/timer_1us/PERIOD=90000#1| state) (|$paramod/timer_1us/PERIOD=90000#8| state) #b0)) ; $0\o_q[0:0]
(define-fun |$paramod/timer_1us/PERIOD=90000_a| ((state |$paramod/timer_1us/PERIOD=90000_s|)) Bool true)
(define-fun |$paramod/timer_1us/PERIOD=90000_u| ((state |$paramod/timer_1us/PERIOD=90000_s|)) Bool true)
(define-fun |$paramod/timer_1us/PERIOD=90000_i| ((state |$paramod/timer_1us/PERIOD=90000_s|)) Bool (and
  (= (= ((_ extract 0 0) (|$paramod/timer_1us/PERIOD=90000#0| state)) #b1) false) ; o_q
  (= (|$paramod/timer_1us/PERIOD=90000#3| state) #b00000000000000000000000000000000) ; count
))
(define-fun |$paramod/timer_1us/PERIOD=90000_h| ((state |$paramod/timer_1us/PERIOD=90000_s|)) Bool true)
(define-fun |$paramod/timer_1us/PERIOD=90000_t| ((state |$paramod/timer_1us/PERIOD=90000_s|) (next_state |$paramod/timer_1us/PERIOD=90000_s|)) Bool (and
  (= (|$paramod/timer_1us/PERIOD=90000#7| state) (|$paramod/timer_1us/PERIOD=90000#3| next_state)) ; $procdff$572 \count
  (= (|$paramod/timer_1us/PERIOD=90000#9| state) (|$paramod/timer_1us/PERIOD=90000#0| next_state)) ; $procdff$571 \o_q
)) ; end of module $paramod/timer_1us/PERIOD=90000
; yosys-smt2-module bullet
(declare-sort |bullet_s| 0)
(declare-fun |bullet_is| (|bullet_s|) Bool)
; yosys-smt2-wire tick 1
; yosys-smt2-cell $paramod/timer_1us/PERIOD=90000 timer_1us1
(declare-fun |bullet#0| (|bullet_s|) Bool) ; \tick
(declare-fun |bullet_h timer_1us1| (|bullet_s|) |$paramod/timer_1us/PERIOD=90000_s|)
(define-fun |bullet_n tick| ((state |bullet_s|)) Bool (|bullet#0| state))
; yosys-smt2-output o_bullet_y 4
; yosys-smt2-register o_bullet_y 4
; yosys-smt2-wire o_bullet_y 4
(declare-fun |bullet#1| (|bullet_s|) (_ BitVec 4)) ; \o_bullet_y
(define-fun |bullet_n o_bullet_y| ((state |bullet_s|)) (_ BitVec 4) (|bullet#1| state))
; yosys-smt2-output o_bullet_x 5
; yosys-smt2-register o_bullet_x 5
; yosys-smt2-wire o_bullet_x 5
(declare-fun |bullet#2| (|bullet_s|) (_ BitVec 5)) ; \o_bullet_x
(define-fun |bullet_n o_bullet_x| ((state |bullet_s|)) (_ BitVec 5) (|bullet#2| state))
; yosys-smt2-register next_state 2
; yosys-smt2-wire next_state 2
(declare-fun |bullet#3| (|bullet_s|) (_ BitVec 2)) ; \next_state
(define-fun |bullet_n next_state| ((state |bullet_s|)) (_ BitVec 2) (|bullet#3| state))
; yosys-smt2-input i_shoot 1
; yosys-smt2-wire i_shoot 1
(declare-fun |bullet#4| (|bullet_s|) Bool) ; \i_shoot
(define-fun |bullet_n i_shoot| ((state |bullet_s|)) Bool (|bullet#4| state))
; yosys-smt2-input i_ship_x 5
; yosys-smt2-wire i_ship_x 5
(declare-fun |bullet#5| (|bullet_s|) (_ BitVec 5)) ; \i_ship_x
(define-fun |bullet_n i_ship_x| ((state |bullet_s|)) (_ BitVec 5) (|bullet#5| state))
; yosys-smt2-input i_reset 1
; yosys-smt2-wire i_reset 1
(declare-fun |bullet#6| (|bullet_s|) Bool) ; \i_reset
(define-fun |bullet_n i_reset| ((state |bullet_s|)) Bool (|bullet#6| state))
; yosys-smt2-input i_hit 1
; yosys-smt2-wire i_hit 1
(declare-fun |bullet#7| (|bullet_s|) Bool) ; \i_hit
(define-fun |bullet_n i_hit| ((state |bullet_s|)) Bool (|bullet#7| state))
; yosys-smt2-input i_clk_25MHz 1
; yosys-smt2-wire i_clk_25MHz 1
; yosys-smt2-clock i_clk_25MHz posedge
(declare-fun |bullet#8| (|bullet_s|) Bool) ; \i_clk_25MHz
(define-fun |bullet_n i_clk_25MHz| ((state |bullet_s|)) Bool (|bullet#8| state))
; yosys-smt2-register current_state 2
; yosys-smt2-wire current_state 2
(declare-fun |bullet#9| (|bullet_s|) (_ BitVec 2)) ; \current_state
(define-fun |bullet_n current_state| ((state |bullet_s|)) (_ BitVec 2) (|bullet#9| state))
; yosys-smt2-register $formal$bullet.v:85$58_CHECK 1
(declare-fun |bullet#10| (|bullet_s|) (_ BitVec 1)) ; $formal$bullet.v:85$58_CHECK
(define-fun |bullet_n $formal$bullet.v:85$58_CHECK| ((state |bullet_s|)) Bool (= ((_ extract 0 0) (|bullet#10| state)) #b1))
; yosys-smt2-register $formal$bullet.v:84$57_EN 1
(declare-fun |bullet#11| (|bullet_s|) (_ BitVec 1)) ; $formal$bullet.v:84$57_EN
(define-fun |bullet_n $formal$bullet.v:84$57_EN| ((state |bullet_s|)) Bool (= ((_ extract 0 0) (|bullet#11| state)) #b1))
; yosys-smt2-register $formal$bullet.v:84$57_CHECK 1
(declare-fun |bullet#12| (|bullet_s|) (_ BitVec 1)) ; $formal$bullet.v:84$57_CHECK
(define-fun |bullet_n $formal$bullet.v:84$57_CHECK| ((state |bullet_s|)) Bool (= ((_ extract 0 0) (|bullet#12| state)) #b1))
; yosys-smt2-assert 0 bullet.v:85
(define-fun |bullet_a 0| ((state |bullet_s|)) Bool (or (= ((_ extract 0 0) (|bullet#10| state)) #b1) (not (= ((_ extract 0 0) (|bullet#11| state)) #b1)))) ; $assert$bullet.v:85$295
; yosys-smt2-assert 1 bullet.v:84
(define-fun |bullet_a 1| ((state |bullet_s|)) Bool (or (= ((_ extract 0 0) (|bullet#12| state)) #b1) (not (= ((_ extract 0 0) (|bullet#11| state)) #b1)))) ; $assert$bullet.v:84$294
(define-fun |bullet#13| ((state |bullet_s|)) Bool (bvult (concat #b0 (|bullet#1| state)) #b10000)) ; $0$formal$bullet.v:84$57_CHECK[0:0]$120
(define-fun |bullet#14| ((state |bullet_s|)) Bool (bvuge (|bullet#1| state) #b0000)) ; $0$formal$bullet.v:85$58_CHECK[0:0]$122
(define-fun |bullet#15| ((state |bullet_s|)) Bool (not (or  (= ((_ extract 0 0) (|bullet#1| state)) #b1) (= ((_ extract 1 1) (|bullet#1| state)) #b1) (= ((_ extract 2 2) (|bullet#1| state)) #b1) (= ((_ extract 3 3) (|bullet#1| state)) #b1)))) ; $0$formal$bullet.v:87$59_CHECK[0:0]$124
(define-fun |bullet#16| ((state |bullet_s|)) (_ BitVec 2) (ite (|bullet#15| state) #b00 #b10)) ; $procmux$513_Y
(define-fun |bullet#17| ((state |bullet_s|)) (_ BitVec 2) (ite (|bullet#0| state) #b10 (|bullet#16| state))) ; $procmux$516_Y
(define-fun |bullet#18| ((state |bullet_s|)) (_ BitVec 2) (ite (|bullet#7| state) #b00 (|bullet#17| state))) ; $procmux$519_Y
(define-fun |bullet#19| ((state |bullet_s|)) (_ BitVec 2) (ite (|bullet#7| state) #b00 #b10)) ; $procmux$524_Y
(define-fun |bullet#20| ((state |bullet_s|)) (_ BitVec 1) (ite (|bullet#4| state) #b1 #b0)) ; $auto$wreduce.cc:350:run$693 [0]
(define-fun |bullet#21| ((state |bullet_s|)) Bool (= (|bullet#9| state) #b10)) ; $procmux$522_CMP
(define-fun |bullet#22| ((state |bullet_s|)) Bool (= (|bullet#9| state) #b01)) ; $procmux$526_CMP
(define-fun |bullet#23| ((state |bullet_s|)) Bool (not (or  (= ((_ extract 0 0) (|bullet#9| state)) #b1) (= ((_ extract 1 1) (|bullet#9| state)) #b1)))) ; $procmux$530_CMP
(define-fun |bullet#24| ((state |bullet_s|)) (_ BitVec 2) (ite (|bullet#23| state) (concat #b0 (|bullet#20| state)) (ite (|bullet#22| state) (|bullet#19| state) (ite (|bullet#21| state) (|bullet#18| state) #b00)))) ; $0\next_state[1:0]
(define-fun |bullet#25| ((state |bullet_s|)) (_ BitVec 5) (ite (|bullet#15| state) #b00000 (|bullet#2| state))) ; $procmux$553_Y
(define-fun |bullet#26| ((state |bullet_s|)) (_ BitVec 5) (ite (|bullet#0| state) (|bullet#2| state) (|bullet#25| state))) ; $procmux$556_Y
(define-fun |bullet#27| ((state |bullet_s|)) (_ BitVec 5) (ite (|bullet#7| state) #b00000 (|bullet#26| state))) ; $procmux$559_Y
(define-fun |bullet#28| ((state |bullet_s|)) (_ BitVec 5) (ite (|bullet#7| state) #b00000 (|bullet#2| state))) ; $procmux$564_Y
(define-fun |bullet#29| ((state |bullet_s|)) (_ BitVec 5) (ite (|bullet#4| state) (|bullet#5| state) (|bullet#2| state))) ; $procmux$568_Y
(define-fun |bullet#30| ((state |bullet_s|)) (_ BitVec 5) (ite (|bullet#23| state) (|bullet#29| state) (ite (|bullet#22| state) (|bullet#28| state) (ite (|bullet#21| state) (|bullet#27| state) #b00000)))) ; $0\o_bullet_x[4:0]
(define-fun |bullet#31| ((state |bullet_s|)) (_ BitVec 4) (ite (|bullet#15| state) #b1110 (|bullet#1| state))) ; $procmux$533_Y
(define-fun |bullet#32| ((state |bullet_s|)) (_ BitVec 4) (bvsub (|bullet#1| state) #b0001)) ; $auto$wreduce.cc:350:run$694 [3:0]
(define-fun |bullet#33| ((state |bullet_s|)) (_ BitVec 4) (ite (|bullet#0| state) (|bullet#32| state) (|bullet#31| state))) ; $procmux$536_Y
(define-fun |bullet#34| ((state |bullet_s|)) (_ BitVec 4) (ite (|bullet#7| state) #b1110 (|bullet#33| state))) ; $procmux$539_Y
(define-fun |bullet#35| ((state |bullet_s|)) (_ BitVec 4) (ite (|bullet#7| state) #b1110 (|bullet#1| state))) ; $procmux$544_Y
(define-fun |bullet#36| ((state |bullet_s|)) (_ BitVec 4) (ite (|bullet#4| state) #b1100 (|bullet#1| state))) ; $procmux$548_Y
(define-fun |bullet#37| ((state |bullet_s|)) (_ BitVec 4) (ite (|bullet#23| state) (|bullet#36| state) (ite (|bullet#22| state) (|bullet#35| state) (ite (|bullet#21| state) (|bullet#34| state) #b1110)))) ; $0\o_bullet_y[3:0]
(define-fun |bullet_a| ((state |bullet_s|)) Bool (and
  (|bullet_a 0| state)
  (|bullet_a 1| state)
  (|$paramod/timer_1us/PERIOD=90000_a| (|bullet_h timer_1us1| state))
))
(define-fun |bullet_u| ((state |bullet_s|)) Bool 
  (|$paramod/timer_1us/PERIOD=90000_u| (|bullet_h timer_1us1| state))
)
(define-fun |bullet_i| ((state |bullet_s|)) Bool (and
  (= (|bullet#1| state) #b1110) ; o_bullet_y
  (= (|bullet#2| state) #b00000) ; o_bullet_x
  (= (|bullet#3| state) #b00) ; next_state
  (= (|bullet#9| state) #b00) ; current_state
  (= (= ((_ extract 0 0) (|bullet#11| state)) #b1) false) ; $formal$bullet.v:84$57_EN
  (|$paramod/timer_1us/PERIOD=90000_i| (|bullet_h timer_1us1| state))
))
(define-fun |bullet_h| ((state |bullet_s|)) Bool (and
  (= (|bullet_is| state) (|$paramod/timer_1us/PERIOD=90000_is| (|bullet_h timer_1us1| state)))
  (= (|bullet#0| state) (|$paramod/timer_1us/PERIOD=90000_n o_q| (|bullet_h timer_1us1| state))) ; $paramod/timer_1us/PERIOD=90000.o_q
  (= (|bullet#6| state) (|$paramod/timer_1us/PERIOD=90000_n i_reset| (|bullet_h timer_1us1| state))) ; $paramod/timer_1us/PERIOD=90000.i_reset
  (= (|bullet#8| state) (|$paramod/timer_1us/PERIOD=90000_n i_clk_25MHz| (|bullet_h timer_1us1| state))) ; $paramod/timer_1us/PERIOD=90000.i_clk_25MHz
  (|$paramod/timer_1us/PERIOD=90000_h| (|bullet_h timer_1us1| state))
))
(define-fun |bullet_t| ((state |bullet_s|) (next_state |bullet_s|)) Bool (and
  (= (ite (|bullet#13| state) #b1 #b0) (|bullet#12| next_state)) ; $procdff$573 $formal$bullet.v:84$57_CHECK
  (= #b1 (|bullet#11| next_state)) ; $procdff$574 $formal$bullet.v:84$57_EN
  (= (ite (|bullet#14| state) #b1 #b0) (|bullet#10| next_state)) ; $procdff$575 $formal$bullet.v:85$58_CHECK
  (= (|bullet#3| state) (|bullet#9| next_state)) ; $procdff$692 \current_state
  (= (|bullet#24| state) (|bullet#3| next_state)) ; $procdff$691 \next_state
  (= (|bullet#30| state) (|bullet#2| next_state)) ; $procdff$689 \o_bullet_x
  (= (|bullet#37| state) (|bullet#1| next_state)) ; $procdff$690 \o_bullet_y
  (|$paramod/timer_1us/PERIOD=90000_t| (|bullet_h timer_1us1| state) (|bullet_h timer_1us1| next_state))
)) ; end of module bullet
; yosys-smt2-topmod bullet
; end of yosys output
